61
Time limit set to 60 seconds
Running CP solver
/home/omastto1/General-Optimization-Solver/src/solvers/mmrcpsp.py:42(stream:108:6): Warning: Cumulative expression 'pulse': height is zero, expression is zero everywhere.
                                                                                               VarCumulAtom_149 = pulse(task_0_mode_0, 0)
/home/omastto1/General-Optimization-Solver/src/solvers/mmrcpsp.py:42(stream:108:1253): Warning: Cumulative expression 'pulse': height is zero, expression is zero everywhere.
                                                                                                  VarCumulAtom_198 = pulse(task_17_mode_0, 0)
/home/omastto1/General-Optimization-Solver/src/solvers/mmrcpsp.py:42(stream:109:6): Warning: Cumulative expression 'pulse': height is zero, expression is zero everywhere.
                                                                                               VarCumulAtom_202 = pulse(task_0_mode_0, 0)
/home/omastto1/General-Optimization-Solver/src/solvers/mmrcpsp.py:42(stream:109:1256): Warning: Cumulative expression 'pulse': height is zero, expression is zero everywhere.
                                                                                                  VarCumulAtom_251 = pulse(task_17_mode_0, 0)
 ! --------------------------------------------------- CP Optimizer 20.1.0.0 --
 ! Minimization problem - 69 variables, 51 constraints
 ! TimeLimit            = 60
 ! Workers              = 14
 ! LogVerbosity         = Terse
 ! Initial process time : 0.02s (0.02s extraction + 0.00s propagation)
 !  . Log search space  : 161.5 (before), 161.5 (after)
 !  . Memory usage      : 754.6 kB (before), 754.6 kB (after)
 ! Using parallel search with 14 workers.
 ! ----------------------------------------------------------------------------
 !          Best Branches  Non-fixed    W       Branch decision
                        0         69                 -
 + New bound is 23
 ! Using iterative diving.
 ! Using temporal relaxation.
 *            41       43  0.74s        1      (gap is 43.90%)
 *            40      109  0.74s        1      (gap is 42.50%)
 *            35      179  0.74s        1      (gap is 34.29%)
 *            34      219  0.74s        1      (gap is 32.35%)
 *            32      279  0.74s        1      (gap is 28.12%)
 *            31      363  0.74s        1      (gap is 25.81%)
 *            30      496  0.74s        1      (gap is 23.33%)
 *            29      528  0.74s        1      (gap is 20.69%)
 *            25      940  0.74s        1      (gap is 8.00%)
 *            24     2184  0.74s        1      (gap is 4.17%)
 *            23     2576  0.74s        1      (gap is 0.00%)
 ! ----------------------------------------------------------------------------
 ! Search completed, 11 solutions found.
 ! Best objective         : 23 (optimal - effective tol. is 0)
 ! Best bound             : 23
 ! ----------------------------------------------------------------------------
 ! Number of branches     : 110418
 ! Number of fails        : 25237
 ! Total memory usage     : 9.7 MB (9.6 MB CP Optimizer + 0.1 MB Concert)
 ! Time spent in solve    : 1.13s (1.11s engine + 0.02s extraction)
 ! Search speed (br. / s) : 99475.7
 ! ----------------------------------------------------------------------------
task_0: (start=0, end=0, size=0, length=0)
Task 0 is scheduled in mode 0 from 0 to 0
task_1: (start=0, end=2, size=2, length=2)
Task 1 is scheduled in mode 0 from 0 to 2
task_2: (start=3, end=11, size=8, length=8)
Task 2 is scheduled in mode 2 from 3 to 11
task_3: (start=0, end=4, size=4, length=4)
Task 3 is scheduled in mode 1 from 0 to 4
task_4: (start=2, end=11, size=9, length=9)
Task 4 is scheduled in mode 2 from 2 to 11
task_5: (start=2, end=3, size=1, length=1)
Task 5 is scheduled in mode 0 from 2 to 3
task_6: (start=10, end=17, size=7, length=7)
Task 6 is scheduled in mode 2 from 10 to 17
task_7: (start=3, end=12, size=9, length=9)
Task 7 is scheduled in mode 2 from 3 to 12
task_8: (start=4, end=10, size=6, length=6)
Task 8 is scheduled in mode 0 from 4 to 10
task_9: (start=11, end=13, size=2, length=2)
Task 9 is scheduled in mode 2 from 11 to 13
task_10: (start=13, end=16, size=3, length=3)
Task 10 is scheduled in mode 0 from 13 to 16
task_11: (start=16, end=17, size=1, length=1)
Task 11 is scheduled in mode 0 from 16 to 17
task_12: (start=18, end=21, size=3, length=3)
Task 12 is scheduled in mode 0 from 18 to 21
task_13: (start=12, end=16, size=4, length=4)
Task 13 is scheduled in mode 1 from 12 to 16
task_14: (start=17, end=23, size=6, length=6)
Task 14 is scheduled in mode 0 from 17 to 23
task_15: (start=21, end=23, size=2, length=2)
Task 15 is scheduled in mode 0 from 21 to 23
task_16: (start=13, end=18, size=5, length=5)
Task 16 is scheduled in mode 1 from 13 to 18
task_17: (start=23, end=23, size=0, length=0)
Task 17 is scheduled in mode 0 from 23 to 23
Optimal solution found
Objective value: 23
Solution is optimal.
